5 5
3 56 0 83 2 9 1 36 4 57
4 79 3 5 1 81 0 94 2 7
3 6 0 79 4 52 2 74 1 70
0 55 1 77 3 14 2 1 4 97
1 83 4 73 0 37 3 49 2 12
-1
0 1 3 4 5
0 3 4 5
0 3 5
0 3 4 5
0 3 5
-2
82 160 250 341
187 364 338
213 449
232 169 349
286 293

370 7
15 11 1 22 8
20 16 7 3 14
18 2 13 9 24
10 0 6 17 23
5 21 12 19 4
